17178
0 0 0 0 1 0 0 1 1 1 1 1 0 1 0 0 1 0 0 0 0 1 1 0 0 1 0 1 0 0
21 10 13 13 16 8 13 8 21 9 21 13 8 25 11 8 13 8 25 9 21 13 8 16 16 22 27 9 25 8 4 13 11 9 4 8 27 8 7 16 4 13 10 10 4 7 27 8 7 9 10 13 8 7 13 21 27 8 4 11 10 13 8 7 9 11 13 10 10 4 11 9 22 21 16 10 7 8 7 7 11 13 10 10 4 21 27 27 11 11 4 13 8 9 4 22 27 8 16 16 25 13 10 7 4 22 27 8 25 9 22 27 8 25 13 22 27 8 25 9 27 27 8 25 7 22 27 8 8 25 10 27 8 7 7 10 27 8 8 9 8 21 10 10 21 10 27 8 8 13